\* Problem: Unknown *\

Maximize
 obj: + xp_0_0 + xp_1_0 + xp_1_1 + xp_2_0 + xp_2_1 + xp_3_0 + xp_3_1
 + xp_4_0 + xp_5_0 + xp_6_0 + xp_7_0 + xp_8_0 + xp_9_0 + xp_9_1
 + xp_10_0 + xp_11_0 + xp_11_1 + xp_12_0 + xp_12_1 + xp_13_0 + xp_13_1
 + xp_14_0 + xp_14_1 + xp_15_0 + xp_16_0 + xp_17_0 + xp_17_1 + xp_18_0
 + xp_18_1 + xp_18_2 + xp_19_0 + xp_19_1 + xp_20_0 + xp_21_0 + xp_22_0
 + xp_22_1 + xp_23_0 + xp_24_0 + xp_24_1 + xp_25_0 + xp_26_0 + xp_27_0
 + xp_28_0 + xp_28_1 + xp_29_0 + xp_30_0 + xp_30_1 + xp_31_0 + xp_32_0
 + xp_32_1 + xp_32_2 + xp_33_0 + xp_34_0 + xp_34_1 + xp_35_0 + xp_36_0
 + xp_37_0 + xp_38_0 + xp_38_1 + xp_39_0 + xp_40_0 + xp_40_1 + xp_40_2
 + xp_41_0 + xp_42_0 + xp_42_1 + xp_42_2 + xp_43_0 + xp_44_0 + xp_45_0
 + xp_46_0 + xp_47_0 + xp_48_0 + xp_48_1 + xp_49_0 + xp_50_0 + xp_50_1
 + xp_51_0 + xp_52_0 + xp_53_0 + xp_53_1 + xp_54_0 + xp_55_0 + xp_56_0
 + xp_57_0 + xp_57_1 + xp_58_0 + xp_58_1 + xp_59_0 + xp_60_0 + xp_60_1
 + xp_61_0 + xp_61_1 + xp_62_0 + xp_63_0 + xp_63_1 + xp_64_0 + xp_65_0
 + xp_65_1 + xp_66_0 + xp_67_0 + xp_67_1 + xp_68_0 + xp_68_1 + xp_68_2
 + xp_69_0 + xp_70_0 + xp_71_0 + xp_72_0 + xp_73_0 + xp_74_0 + xp_74_1
 + xp_75_0 + xp_76_0 + xp_77_0 + xp_77_1 + xp_78_0 + xp_78_1 + xp_78_2
 + xp_78_3 + xp_78_4 + xp_79_0 + xp_79_1 + xp_80_0 + xp_80_1 + xp_81_0
 + xp_81_1 + xp_82_0 + xp_83_0 + xp_84_0 + xp_85_0 + xp_85_1 + xp_85_2
 + xp_86_0 + xp_86_1 + xp_86_2 + xp_87_0 + xp_88_0 + xp_89_0 + xp_89_1
 + xp_90_0 + xp_90_1 + xp_90_2 + xp_91_0 + xp_91_1 + xp_92_0 + xp_93_0
 + xp_94_0 + xp_94_1 + xp_95_0 + xp_95_1 + xp_96_0 + xp_96_1 + xp_97_0
 + xp_98_0 + xp_98_1 + xp_99_0 + xp_100_0 + xp_101_0 + xp_102_0
 + xp_103_0 + xp_104_0 + xp_105_0 + xp_105_1 + xp_106_0 + xp_107_0
 + xp_108_0 + xp_108_1 + xp_108_2 + xp_109_0 + xp_109_1 + xp_110_0
 + xp_111_0 + xp_111_1 + xp_112_0 + xp_112_1 + xp_113_0 + xp_114_0
 + xp_115_0 + xp_115_1 + xp_116_0 + xp_116_1 + xp_117_0 + xp_118_0
 + xp_119_0 + xp_120_0 + xp_120_1 + xp_120_2 + xp_121_0 + xp_122_0
 + xp_123_0 + xp_123_1 + xp_124_0 + xp_125_0 + xp_125_1 + xp_126_0
 + xp_126_1 + xp_126_2 + xp_126_3 + xp_126_4 + xp_127_0 + xp_127_1
 + xp_128_0 + xp_128_1 + xp_129_0 + xp_129_1 + xp_130_0 + xp_131_0
 + xp_131_1 + xp_131_2

Subject To
 r_1: + xp_128_1 + xp_123_1 + xp_122_0 + xp_121_0 + xp_108_2 + xp_107_0
 + xp_78_3 + xp_67_1 + xp_57_1 + xp_40_2 + xp_40_1 + xp_25_0 + xp_22_1
 + xp_18_2 + xp_18_0 + xp_16_0 + xp_13_1 + xp_4_0 <= 39327.3986152324
 r_2: + xp_131_2 + xp_131_1 + xp_127_1 + xp_126_1 + xp_120_2 + xp_120_0
 + xp_94_1 + xp_93_0 + xp_90_1 + xp_89_1 + xp_85_2 + xp_85_1 + xp_85_0
 + xp_77_1 + xp_75_0 + xp_74_1 + xp_71_0 + xp_66_0 + xp_65_1 + xp_65_0
 + xp_61_1 + xp_55_0 + xp_52_0 + xp_48_1 + xp_48_0 + xp_42_2 + xp_42_1
 + xp_38_1 + xp_32_2 + xp_32_1 + xp_32_0 + xp_28_1 + xp_28_0 + xp_24_0
 + xp_19_1 + xp_19_0 + xp_12_1 + xp_1_1 <= 35092.9221035983
 r_3: + xp_126_4 + xp_114_0 + xp_105_1 + xp_95_0 + xp_76_0 + xp_68_2
 + xp_58_1 + xp_48_1 + xp_34_0 + xp_32_1 <= 39327.3986152324
 r_4: + xp_117_0 + xp_95_1 + xp_91_1 + xp_91_0 + xp_84_0 + xp_79_1
 + xp_79_0 + xp_78_4 + xp_46_0 + xp_43_0 + xp_40_2 + xp_40_1 + xp_40_0
 + xp_34_1 <= 36597.9381443299
 r_5: + xp_130_0 + xp_99_0 + xp_86_0 + xp_78_4 + xp_7_0 + xp_2_0
 <= 39327.3986152324
 r_6: + xp_126_4 + xp_126_2 + xp_119_0 + xp_114_0 + xp_95_0 + xp_83_0
 + xp_81_0 + xp_70_0 + xp_68_2 + xp_68_1 + xp_58_1 + xp_53_0 + xp_48_1
 + xp_45_0 + xp_34_0 + xp_32_2 + xp_32_1 + xp_30_1 + xp_18_0
 <= 39177.1539206196
 r_7: + xp_112_1 + xp_111_1 + xp_104_0 + xp_88_0 + xp_82_0 + xp_81_1
 + xp_78_2 + xp_53_1 + xp_50_1 + xp_44_0 + xp_27_0 + xp_18_2 + xp_18_1
 + xp_3_1 <= 36597.9381443299
 r_8: + xp_131_2 + xp_131_1 + xp_127_1 + xp_126_1 + xp_120_2 + xp_120_0
 + xp_118_0 + xp_103_0 + xp_94_1 + xp_90_1 + xp_89_1 + xp_77_1 + xp_74_1
 + xp_71_0 + xp_61_1 + xp_55_0 + xp_42_2 + xp_42_1 + xp_38_1 + xp_32_2
 + xp_32_1 + xp_32_0 + xp_24_0 + xp_12_1 + xp_1_1 <= 39327.3986152324
 r_9: + xp_131_0 + xp_127_0 + xp_123_1 + xp_122_0 + xp_120_1 + xp_108_2
 + xp_78_3 + xp_77_0 + xp_67_1 + xp_57_1 + xp_42_0 + xp_33_0 + xp_24_1
 <= 39484.32760364
 r_10: + xp_112_1 + xp_111_1 + xp_106_0 + xp_99_0 + xp_98_0 + xp_94_1
 + xp_88_0 + xp_86_0 + xp_85_0 + xp_78_4 + xp_78_2 + xp_50_1 + xp_26_0
 + xp_24_0 + xp_8_0 + xp_7_0 + xp_3_1 + xp_2_0 <= 39177.1539206196
 r_11: + xp_119_0 + xp_112_0 + xp_111_0 + xp_95_0 + xp_81_0 + xp_78_3
 + xp_78_1 + xp_78_0 + xp_59_0 + xp_53_0 + xp_50_0 + xp_49_0 + xp_45_0
 + xp_34_0 + xp_18_0 + xp_4_0 + xp_3_0 <= 36277.3722627737
 r_12: + xp_129_0 + xp_128_0 + xp_123_0 + xp_117_0 + xp_112_1 + xp_111_1
 + xp_108_1 + xp_101_0 + xp_91_1 + xp_82_0 + xp_81_1 + xp_80_1 + xp_79_1
 + xp_78_4 + xp_78_2 + xp_78_0 + xp_73_0 + xp_63_1 + xp_60_0 + xp_50_1
 + xp_46_0 + xp_44_0 + xp_40_1 + xp_40_0 + xp_18_1 + xp_17_1 + xp_15_0
 + xp_14_1 + xp_13_0 + xp_9_0 <= 36088.8175494917
 r_13: + xp_129_1 + xp_128_1 + xp_126_3 + xp_123_1 + xp_120_2 + xp_120_1
 + xp_109_1 + xp_100_0 + xp_96_1 + xp_95_1 + xp_91_0 + xp_90_0 + xp_80_0
 + xp_79_0 + xp_68_0 + xp_63_0 + xp_60_1 + xp_53_1 + xp_40_2 + xp_34_1
 + xp_31_0 + xp_30_0 + xp_18_2 + xp_17_0 + xp_13_1 + xp_9_1
 <= 36277.3722627737
 r_14: + xp_131_2 + xp_131_1 + xp_131_0 + xp_126_4 + xp_126_2 + xp_125_1
 + xp_125_0 + xp_124_0 + xp_115_1 + xp_115_0 + xp_98_1 + xp_94_0
 + xp_86_2 + xp_86_1 + xp_85_2 + xp_85_1 + xp_77_1 + xp_77_0 + xp_68_2
 + xp_68_1 + xp_65_1 + xp_65_0 + xp_58_1 + xp_56_0 + xp_51_0 + xp_48_1
 + xp_41_0 + xp_38_1 + xp_38_0 + xp_35_0 + xp_32_2 + xp_32_1 + xp_30_1
 + xp_24_1 + xp_20_0 + xp_19_1 + xp_19_0 + xp_12_1 + xp_12_0 + xp_2_1
 + xp_0_0 <= 36597.9381443299
 r_15: + xp_131_2 + xp_131_0 + xp_126_4 + xp_126_3 + xp_126_2 + xp_125_0
 + xp_124_0 + xp_120_2 + xp_120_1 + xp_116_0 + xp_115_0 + xp_109_1
 + xp_98_1 + xp_96_1 + xp_94_0 + xp_90_0 + xp_89_1 + xp_89_0 + xp_86_1
 + xp_85_1 + xp_77_1 + xp_77_0 + xp_68_2 + xp_68_1 + xp_68_0 + xp_65_0
 + xp_58_1 + xp_51_0 + xp_48_1 + xp_42_1 + xp_42_0 + xp_38_0 + xp_36_0
 + xp_32_2 + xp_32_1 + xp_28_1 + xp_24_1 + xp_19_1 + xp_12_0 + xp_11_0
 + xp_0_0 <= 36088.8175494917
 r_16: + xp_128_0 + xp_123_0 + xp_108_1 + xp_108_0 + xp_78_4 + xp_78_2
 + xp_78_1 + xp_78_0 + xp_73_0 + xp_67_0 + xp_57_0 + xp_46_0 + xp_44_0
 + xp_40_0 + xp_22_0 + xp_18_1 + xp_13_0 + xp_6_0 <= 39484.32760364
 r_17: + xp_129_0 + xp_126_0 + xp_112_1 + xp_111_1 + xp_109_0 + xp_97_0
 + xp_91_1 + xp_90_2 + xp_81_1 + xp_80_1 + xp_79_1 + xp_63_1 + xp_62_0
 + xp_61_0 + xp_60_0 + xp_47_0 + xp_40_1 + xp_22_1 + xp_17_1 + xp_9_0
 + xp_1_0 <= 35092.9221035983
 r_18: + xp_126_3 + xp_126_1 + xp_126_0 + xp_106_0 + xp_99_0 + xp_98_0
 + xp_94_1 + xp_92_0 + xp_86_0 + xp_85_0 + xp_68_0 + xp_58_0 + xp_48_0
 + xp_32_0 + xp_30_0 + xp_26_0 + xp_24_0 + xp_5_0 + xp_2_0
 <= 36277.3722627737
 r_19: + xp_131_1 + xp_125_1 + xp_116_1 + xp_115_1 + xp_110_0 + xp_108_1
 + xp_86_2 + xp_85_2 + xp_78_0 + xp_65_1 + xp_56_0 + xp_42_2 + xp_38_1
 + xp_28_0 + xp_19_0 + xp_14_1 + xp_12_1 + xp_11_1 + xp_3_0 + xp_2_1
 <= 36277.3722627737
 r_20: + xp_129_1 + xp_128_1 + xp_123_1 + xp_119_0 + xp_112_0 + xp_111_0
 + xp_108_2 + xp_108_0 + xp_107_0 + xp_95_1 + xp_95_0 + xp_91_0
 + xp_81_0 + xp_80_0 + xp_79_0 + xp_78_3 + xp_78_1 + xp_69_0 + xp_64_0
 + xp_63_0 + xp_60_1 + xp_50_0 + xp_49_0 + xp_45_0 + xp_40_2 + xp_18_2
 + xp_18_0 + xp_17_0 + xp_14_0 + xp_13_1 + xp_10_0 + xp_9_1 + xp_4_0
 <= 35092.9221035983
 r_21: + xp_126_4 + xp_113_0 + xp_105_1 + xp_86_2 + xp_86_1 + xp_77_1
 + xp_77_0 + xp_68_2 + xp_65_1 + xp_65_0 + xp_58_1 + xp_48_1 + xp_38_1
 + xp_38_0 + xp_32_1 + xp_20_0 + xp_2_1 + xp_0_0 <= 36597.9381443299
 r_22: + xp_126_2 + xp_124_0 + xp_105_0 + xp_98_1 + xp_94_0 + xp_85_2
 + xp_85_1 + xp_83_0 + xp_68_1 + xp_41_0 + xp_32_2 + xp_30_1 + xp_24_1
 <= 36597.9381443299
 r_23: + xp_128_1 + xp_128_0 + xp_117_0 + xp_112_1 + xp_111_1 + xp_104_0
 + xp_100_0 + xp_95_1 + xp_91_1 + xp_91_0 + xp_84_0 + xp_82_0 + xp_81_1
 + xp_80_1 + xp_80_0 + xp_79_1 + xp_79_0 + xp_78_4 + xp_78_2 + xp_73_0
 + xp_60_1 + xp_60_0 + xp_53_1 + xp_50_1 + xp_46_0 + xp_44_0 + xp_40_2
 + xp_40_1 + xp_40_0 + xp_34_1 + xp_21_0 + xp_18_2 + xp_18_1 + xp_15_0
 + xp_9_1 + xp_9_0 + xp_3_1 <= 36597.9381443299
 r_24: + xp_128_0 + xp_126_1 + xp_103_0 + xp_94_1 + xp_90_1 + xp_89_1
 + xp_74_1 + xp_61_1 + xp_40_0 + xp_39_0 + xp_38_1 + xp_22_0 + xp_18_1
 + xp_13_0 + xp_12_1 + xp_1_1 <= 39484.32760364
 r_25: + xp_131_0 + xp_127_0 + xp_126_4 + xp_126_3 + xp_126_2 + xp_126_0
 + xp_120_1 + xp_94_0 + xp_90_2 + xp_90_0 + xp_89_0 + xp_77_0 + xp_74_0
 + xp_61_0 + xp_42_0 + xp_38_0 + xp_24_1 + xp_12_0 + xp_1_0
 <= 39484.32760364
 r_26: + xp_128_1 + xp_123_1 + xp_121_0 + xp_112_1 + xp_112_0 + xp_108_2
 + xp_107_0 + xp_81_1 + xp_81_0 + xp_79_1 + xp_79_0 + xp_78_3 + xp_67_1
 + xp_64_0 + xp_60_1 + xp_60_0 + xp_57_1 + xp_47_0 + xp_40_2 + xp_40_1
 + xp_37_0 + xp_29_0 + xp_25_0 + xp_22_1 + xp_18_2 + xp_18_0 + xp_17_1
 + xp_17_0 + xp_13_1 + xp_4_0 <= 35092.9221035983
 r_27: + xp_131_2 + xp_127_1 + xp_125_0 + xp_120_2 + xp_116_0 + xp_115_0
 + xp_108_0 + xp_98_1 + xp_96_1 + xp_89_1 + xp_86_1 + xp_85_1 + xp_78_1
 + xp_77_1 + xp_74_1 + xp_72_0 + xp_67_0 + xp_65_0 + xp_58_1 + xp_57_0
 + xp_52_0 + xp_50_0 + xp_48_1 + xp_42_1 + xp_32_2 + xp_32_1 + xp_28_1
 + xp_23_0 + xp_19_1 + xp_14_0 + xp_11_0 <= 35092.9221035983
 r_28: + xp_131_1 + xp_126_1 + xp_126_0 + xp_125_1 + xp_120_0 + xp_116_1
 + xp_115_1 + xp_109_0 + xp_99_0 + xp_98_0 + xp_96_0 + xp_94_1 + xp_92_0
 + xp_90_2 + xp_90_1 + xp_86_2 + xp_86_0 + xp_85_2 + xp_85_0 + xp_75_0
 + xp_65_1 + xp_58_0 + xp_54_0 + xp_48_0 + xp_42_2 + xp_38_1 + xp_32_0
 + xp_28_0 + xp_26_0 + xp_24_0 + xp_19_0 + xp_12_1 + xp_11_1
 <= 35092.9221035983
 r_29: + xp_129_1 + xp_129_0 + xp_95_1 + xp_95_0 + xp_93_0 + xp_87_0
 + xp_71_0 + xp_62_0 + xp_49_0 + xp_45_0 + xp_10_0 + xp_9_1 + xp_9_0
 + xp_1_1 + xp_1_0 <= 35092.9221035983
 r_30: + xp_125_1 + xp_125_0 + xp_121_0 + xp_102_0 + xp_99_0 + xp_96_1
 + xp_96_0 + xp_92_0 + xp_57_1 + xp_57_0 + xp_37_0 + xp_26_0 + xp_23_0
 + xp_11_1 + xp_11_0 <= 35092.9221035983

Bounds
 0 <= xp_0_0 <= 236.682713269801
 0 <= xp_1_0 <= 164.818436922239
 0 <= xp_1_1 <= 18.3131596580265
 0 <= xp_2_0 <= 103.829665136934
 0 <= xp_2_1 <= 11.5366294596593
 0 <= xp_3_0 <= 146.293717297044
 0 <= xp_3_1 <= 36.5734293242609
 0 <= xp_4_0 <= 791.300389700071
 0 <= xp_5_0 <= 1086.69099385914
 0 <= xp_6_0 <= 1797.40025856595
 0 <= xp_7_0 <= 640.233350643787
 0 <= xp_8_0 <= 1514.37268998829
 0 <= xp_9_0 <= 43.4226832613423
 0 <= xp_9_1 <= 65.1340248920135
 0 <= xp_10_0 <= 55.0055914638198
 0 <= xp_11_0 <= 24.9905211217835
 0 <= xp_11_1 <= 16.6603474145223
 0 <= xp_12_0 <= 1866.1374141488
 0 <= xp_12_1 <= 207.348601572089
 0 <= xp_13_0 <= 176.923633793664
 0 <= xp_13_1 <= 75.8244144829987
 0 <= xp_14_0 <= 132.370426957764
 0 <= xp_14_1 <= 88.2469513051762
 0 <= xp_15_0 <= 508.669496060852
 0 <= xp_16_0 <= 2649.06135139879
 0 <= xp_17_0 <= 148.984495629469
 0 <= xp_17_1 <= 148.984495629469
 0 <= xp_18_0 <= 180.057365807348
 0 <= xp_18_1 <= 144.045892645878
 0 <= xp_18_2 <= 36.0114731614695
 0 <= xp_19_0 <= 530.949405103289
 0 <= xp_19_1 <= 530.949405103289
 0 <= xp_20_0 <= 128.654905034367
 0 <= xp_21_0 <= 275.3585197678
 0 <= xp_22_0 <= 617.98649784622
 0 <= xp_22_1 <= 617.98649784622
 0 <= xp_23_0 <= 52.1627544049925
 0 <= xp_24_0 <= 205.041275680157
 0 <= xp_24_1 <= 136.694183786771
 0 <= xp_25_0 <= 580.665997387895
 0 <= xp_26_0 <= 15.4042101094591
 0 <= xp_27_0 <= 339.024847387581
 0 <= xp_28_0 <= 267.887808427161
 0 <= xp_28_1 <= 401.831712640741
 0 <= xp_29_0 <= 2456.07899384724
 0 <= xp_30_0 <= 147.19284715751
 0 <= xp_30_1 <= 36.7982117893775
 0 <= xp_31_0 <= 191.263432818306
 0 <= xp_32_0 <= 1807.09234956186
 0 <= xp_32_1 <= 225.886543695232
 0 <= xp_32_2 <= 225.886543695232
 0 <= xp_33_0 <= 8087.34253244553
 0 <= xp_34_0 <= 205.054498178105
 0 <= xp_34_1 <= 307.581747267157
 0 <= xp_35_0 <= 261.937684350546
 0 <= xp_36_0 <= 320.050562832153
 0 <= xp_37_0 <= 366.13096818105
 0 <= xp_38_0 <= 302.38530557358
 0 <= xp_38_1 <= 33.5983672859534
 0 <= xp_39_0 <= 1578.89847997469
 0 <= xp_40_0 <= 426.061940130512
 0 <= xp_40_1 <= 170.424776052205
 0 <= xp_40_2 <= 255.637164078308
 0 <= xp_41_0 <= 80.1944500548237
 0 <= xp_42_0 <= 364.623603414974
 0 <= xp_42_1 <= 45.5779504268718
 0 <= xp_42_2 <= 45.5779504268718
 0 <= xp_43_0 <= 493.794185869315
 0 <= xp_44_0 <= 460.209041081309
 0 <= xp_45_0 <= 42.7086683721485
 0 <= xp_46_0 <= 1611.22748745763
 0 <= xp_47_0 <= 882.072838113321
 0 <= xp_48_0 <= 2625.13524136182
 0 <= xp_48_1 <= 291.681693484647
 0 <= xp_49_0 <= 88.3923987826046
 0 <= xp_50_0 <= 472.281181707864
 0 <= xp_50_1 <= 314.854121138576
 0 <= xp_51_0 <= 712.097626991349
 0 <= xp_52_0 <= 664.761084337389
 0 <= xp_53_0 <= 171.542077128814
 0 <= xp_53_1 <= 19.0602307920904
 0 <= xp_54_0 <= 3706.728962262
 0 <= xp_55_0 <= 1189.42980291536
 0 <= xp_56_0 <= 96.1275600822042
 0 <= xp_57_0 <= 186.119881116521
 0 <= xp_57_1 <= 20.6799867907245
 0 <= xp_58_0 <= 3650.25567352595
 0 <= xp_58_1 <= 912.563918381487
 0 <= xp_59_0 <= 10682.5222047061
 0 <= xp_60_0 <= 340.148759713164
 0 <= xp_60_1 <= 340.148759713164
 0 <= xp_61_0 <= 1700.14217490919
 0 <= xp_61_1 <= 728.632360675365
 0 <= xp_62_0 <= 131.696079562415
 0 <= xp_63_0 <= 105.832873576061
 0 <= xp_63_1 <= 26.4582183940152
 0 <= xp_64_0 <= 997.968032627836
 0 <= xp_65_0 <= 419.417634911626
 0 <= xp_65_1 <= 104.854408727906
 0 <= xp_66_0 <= 1686.0668258435
 0 <= xp_67_0 <= 324.850329587289
 0 <= xp_67_1 <= 81.2125823968223
 0 <= xp_68_0 <= 443.601583658579
 0 <= xp_68_1 <= 887.203167317158
 0 <= xp_68_2 <= 147.86719455286
 0 <= xp_69_0 <= 1724.80874483124
 0 <= xp_70_0 <= 633.952664118471
 0 <= xp_71_0 <= 71.1370389604208
 0 <= xp_72_0 <= 601.226981697088
 0 <= xp_73_0 <= 926.368206239234
 0 <= xp_74_0 <= 861.042455126974
 0 <= xp_74_1 <= 95.6713839029971
 0 <= xp_75_0 <= 1770.42636275196
 0 <= xp_76_0 <= 1728.37881927721
 0 <= xp_77_0 <= 459.402468706479
 0 <= xp_77_1 <= 114.85061717662
 0 <= xp_78_0 <= 2809.57586523894
 0 <= xp_78_1 <= 5619.15173047789
 0 <= xp_78_2 <= 11238.3034609558
 0 <= xp_78_3 <= 5619.15173047789
 0 <= xp_78_4 <= 2809.57586523894
 0 <= xp_79_0 <= 641.740715409863
 0 <= xp_79_1 <= 427.827143606575
 0 <= xp_80_0 <= 135.821498922201
 0 <= xp_80_1 <= 90.5476659481341
 0 <= xp_81_0 <= 209.550147480436
 0 <= xp_81_1 <= 52.3875368701091
 0 <= xp_82_0 <= 220.683490752681
 0 <= xp_83_0 <= 505.892771491765
 0 <= xp_84_0 <= 893.64252381785
 0 <= xp_85_0 <= 205.180111908611
 0 <= xp_85_1 <= 164.144089526889
 0 <= xp_85_2 <= 41.0360223817223
 0 <= xp_86_0 <= 86.0784616416987
 0 <= xp_86_1 <= 68.862769313359
 0 <= xp_86_2 <= 17.2156923283397
 0 <= xp_87_0 <= 141.8774029824
 0 <= xp_88_0 <= 427.020571231745
 0 <= xp_89_0 <= 2007.21485600534
 0 <= xp_89_1 <= 223.023872889483
 0 <= xp_90_0 <= 10897.7514150552
 0 <= xp_90_1 <= 8718.20113204416
 0 <= xp_90_2 <= 2179.55028301104
 0 <= xp_91_0 <= 1366.5121066844
 0 <= xp_91_1 <= 1366.5121066844
 0 <= xp_92_0 <= 67.1702895760107
 0 <= xp_93_0 <= 131.034954665013
 0 <= xp_94_0 <= 190.509750435268
 0 <= xp_94_1 <= 47.627437608817
 0 <= xp_95_0 <= 55.4551563940529
 0 <= xp_95_1 <= 6.16168404378366
 0 <= xp_96_0 <= 104.365176303829
 0 <= xp_96_1 <= 11.5961307004255
 0 <= xp_97_0 <= 529.957717757187
 0 <= xp_98_0 <= 114.9828421561
 0 <= xp_98_1 <= 28.745710539025
 0 <= xp_99_0 <= 16.4620099453018
 0 <= xp_100_0 <= 505.694434022545
 0 <= xp_101_0 <= 251.227461012638
 0 <= xp_102_0 <= 75.3682383037915
 0 <= xp_103_0 <= 1447.59907535072
 0 <= xp_104_0 <= 132.621654418777
 0 <= xp_105_0 <= 1312.00235889363
 0 <= xp_105_1 <= 145.77803987707
 0 <= xp_106_0 <= 41.6508685363058
 0 <= xp_107_0 <= 452.209429822749
 0 <= xp_108_0 <= 170.742116002958
 0 <= xp_108_1 <= 170.742116002958
 0 <= xp_108_2 <= 512.226348008873
 0 <= xp_109_0 <= 485.992912079975
 0 <= xp_109_1 <= 485.992912079975
 0 <= xp_110_0 <= 133.94390421358
 0 <= xp_111_0 <= 2352.75839488131
 0 <= xp_111_1 <= 588.189598720326
 0 <= xp_112_0 <= 3294.90765242152
 0 <= xp_112_1 <= 1412.10327960922
 0 <= xp_113_0 <= 427.747808618887
 0 <= xp_114_0 <= 2410.99027584445
 0 <= xp_115_0 <= 155.496575868875
 0 <= xp_115_1 <= 66.6413896580893
 0 <= xp_116_0 <= 112.411066305208
 0 <= xp_116_1 <= 48.1761712736604
 0 <= xp_117_0 <= 1953.95463427066
 0 <= xp_118_0 <= 3172.07725773326
 0 <= xp_119_0 <= 63.1374277018604
 0 <= xp_120_0 <= 1527.10595551224
 0 <= xp_120_1 <= 436.315987289213
 0 <= xp_120_2 <= 218.157993644606
 0 <= xp_121_0 <= 75.963250711453
 0 <= xp_122_0 <= 2287.29380754059
 0 <= xp_123_0 <= 465.002196587471
 0 <= xp_123_1 <= 51.6669107319413
 0 <= xp_124_0 <= 138.439553515912
 0 <= xp_125_0 <= 16.4620099453018
 0 <= xp_125_1 <= 10.9746732968679
 0 <= xp_126_0 <= 2551.88260272972
 0 <= xp_126_1 <= 7655.64780818915
 0 <= xp_126_2 <= 10207.5304109189
 0 <= xp_126_3 <= 2551.88260272972
 0 <= xp_126_4 <= 2551.88260272972
 0 <= xp_127_0 <= 232.001948996197
 0 <= xp_127_1 <= 348.002923494296
 0 <= xp_128_0 <= 245.026109475011
 0 <= xp_128_1 <= 163.350739650007
 0 <= xp_129_0 <= 19.7015219425701
 0 <= xp_129_1 <= 29.5522829138551
 0 <= xp_130_0 <= 405.864574514891
 0 <= xp_131_0 <= 231.598662808782
 0 <= xp_131_1 <= 308.798217078377
 0 <= xp_131_2 <= 231.598662808782

End
